c colouring generated by benchmark framework
p edge 450 9757
v 1 14
v 2 4
v 3 9
v 4 10
v 5 9
v 6 5
v 7 6
v 8 8
v 9 12
v 10 15
v 11 5
v 12 4
v 13 8
v 14 3
v 15 10
v 16 5
v 17 2
v 18 0
v 19 15
v 20 10
v 21 14
v 22 2
v 23 1
v 24 15
v 25 7
v 26 14
v 27 2
v 28 8
v 29 10
v 30 14
v 31 7
v 32 6
v 33 12
v 34 7
v 35 14
v 36 11
v 37 6
v 38 1
v 39 1
v 40 15
v 41 11
v 42 11
v 43 10
v 44 0
v 45 7
v 46 11
v 47 2
v 48 12
v 49 15
v 50 12
v 51 5
v 52 12
v 53 1
v 54 13
v 55 9
v 56 5
v 57 1
v 58 8
v 59 15
v 60 5
v 61 5
v 62 2
v 63 13
v 64 1
v 65 0
v 66 7
v 67 5
v 68 8
v 69 13
v 70 1
v 71 2
v 72 8
v 73 0
v 74 15
v 75 7
v 76 2
v 77 2
v 78 0
v 79 13
v 80 15
v 81 13
v 82 14
v 83 10
v 84 14
v 85 13
v 86 14
v 87 2
v 88 8
v 89 0
v 90 0
v 91 15
v 92 4
v 93 0
v 94 8
v 95 11
v 96 5
v 97 6
v 98 8
v 99 0
v 100 15
v 101 4
v 102 4
v 103 11
v 104 15
v 105 10
v 106 4
v 107 2
v 108 7
v 109 13
v 110 3
v 111 4
v 112 6
v 113 12
v 114 11
v 115 1
v 116 14
v 117 2
v 118 8
v 119 13
v 120 15
v 121 4
v 122 2
v 123 13
v 124 13
v 125 15
v 126 6
v 127 10
v 128 0
v 129 1
v 130 14
v 131 4
v 132 9
v 133 0
v 134 10
v 135 7
v 136 14
v 137 2
v 138 10
v 139 15
v 140 14
v 141 4
v 142 11
v 143 13
v 144 12
v 145 9
v 146 4
v 147 11
v 148 12
v 149 1
v 150 11
v 151 9
v 152 3
v 153 1
v 154 12
v 155 14
v 156 2
v 157 4
v 158 12
v 159 13
v 160 15
v 161 5
v 162 6
v 163 12
v 164 8
v 165 15
v 166 4
v 167 2
v 168 8
v 169 13
v 170 10
v 171 4
v 172 6
v 173 13
v 174 8
v 175 15
v 176 7
v 177 6
v 178 12
v 179 0
v 180 14
v 181 2
v 182 4
v 183 13
v 184 10
v 185 13
v 186 7
v 187 5
v 188 0
v 189 8
v 190 8
v 191 6
v 192 5
v 193 15
v 194 12
v 195 7
v 196 6
v 197 2
v 198 10
v 199 13
v 200 15
v 201 7
v 202 2
v 203 8
v 204 1
v 205 14
v 206 2
v 207 4
v 208 8
v 209 8
v 210 7
v 211 4
v 212 2
v 213 1
v 214 9
v 215 9
v 216 4
v 217 4
v 218 1
v 219 12
v 220 3
v 221 4
v 222 4
v 223 12
v 224 1
v 225 11
v 226 14
v 227 4
v 228 6
v 229 13
v 230 12
v 231 5
v 232 6
v 233 8
v 234 13
v 235 12
v 236 5
v 237 11
v 238 8
v 239 0
v 240 7
v 241 11
v 242 5
v 243 1
v 244 15
v 245 14
v 246 4
v 247 5
v 248 10
v 249 15
v 250 9
v 251 10
v 252 1
v 253 12
v 254 15
v 255 6
v 256 4
v 257 2
v 258 8
v 259 13
v 260 15
v 261 11
v 262 14
v 263 3
v 264 11
v 265 11
v 266 11
v 267 2
v 268 7
v 269 5
v 270 13
v 271 2
v 272 6
v 273 3
v 274 9
v 275 9
v 276 5
v 277 2
v 278 12
v 279 9
v 280 15
v 281 4
v 282 4
v 283 0
v 284 15
v 285 5
v 286 5
v 287 2
v 288 8
v 289 10
v 290 15
v 291 7
v 292 2
v 293 13
v 294 9
v 295 0
v 296 5
v 297 8
v 298 13
v 299 0
v 300 7
v 301 11
v 302 5
v 303 0
v 304 0
v 305 9
v 306 2
v 307 4
v 308 8
v 309 12
v 310 14
v 311 6
v 312 4
v 313 8
v 314 0
v 315 15
v 316 7
v 317 4
v 318 0
v 319 13
v 320 11
v 321 7
v 322 3
v 323 3
v 324 10
v 325 11
v 326 6
v 327 2
v 328 12
v 329 3
v 330 5
v 331 4
v 332 5
v 333 1
v 334 7
v 335 11
v 336 4
v 337 5
v 338 12
v 339 0
v 340 3
v 341 9
v 342 2
v 343 1
v 344 0
v 345 9
v 346 7
v 347 2
v 348 8
v 349 10
v 350 14
v 351 5
v 352 6
v 353 0
v 354 9
v 355 15
v 356 4
v 357 2
v 358 0
v 359 10
v 360 13
v 361 11
v 362 4
v 363 10
v 364 15
v 365 9
v 366 9
v 367 6
v 368 13
v 369 8
v 370 15
v 371 0
v 372 8
v 373 12
v 374 1
v 375 11
v 376 2
v 377 2
v 378 10
v 379 12
v 380 3
v 381 2
v 382 2
v 383 12
v 384 15
v 385 3
v 386 6
v 387 2
v 388 7
v 389 0
v 390 3
v 391 4
v 392 2
v 393 6
v 394 13
v 395 15
v 396 14
v 397 5
v 398 8
v 399 10
v 400 13
v 401 14
v 402 4
v 403 8
v 404 12
v 405 7
v 406 2
v 407 3
v 408 0
v 409 0
v 410 7
v 411 2
v 412 2
v 413 3
v 414 12
v 415 13
v 416 3
v 417 5
v 418 0
v 419 0
v 420 14
v 421 2
v 422 5
v 423 8
v 424 12
v 425 14
v 426 14
v 427 4
v 428 1
v 429 13
v 430 11
v 431 2
v 432 2
v 433 8
v 434 8
v 435 11
v 436 9
v 437 3
v 438 1
v 439 12
v 440 7
v 441 4
v 442 6
v 443 3
v 444 12
v 445 7
v 446 1
v 447 2
v 448 1
v 449 1
v 450 9
